NAME: ch130.heu.tour
TYPE: TOUR
COMMENT: Heuristic tour (Lin-Kernighan), length 6209.51
DIMENSION: 130
TOUR_SECTION
1
41
71
39
117
3
114
108
8
126
121
78
66
85
125
90
59
30
83
115
28
62
112
105
128
16
45
5
11
76
109
61
129
124
64
69
86
88
26
7
97
70
107
127
104
43
19
27
100
31
34
17
54
35
4
106
38
79
95
116
24
15
29
87
12
81
103
77
94
89
110
98
68
63
48
25
113
32
36
84
119
111
123
101
82
57
9
56
65
52
75
74
99
73
92
91
72
49
58
53
120
60
51
42
44
93
37
22
47
40
23
122
55
6
102
10
14
96
67
13
33
21
18
46
80
20
118
2
50
130
-1
EOF
